(set-logic QF_LIA)
(declare-fun x0 () Int)
(declare-fun x1 () Int)
(declare-fun x2 () Int)
(declare-fun x3 () Int)
(declare-fun x4 () Int)
(declare-fun x5 () Int)
(declare-fun x6 () Int)
(declare-fun x7 () Int)
(declare-fun x8 () Int)
(declare-fun x9 () Int)
(declare-fun A0 () Bool)
(declare-fun A1 () Bool)
(declare-fun A2 () Bool)
(declare-fun A3 () Bool)
(declare-fun A5 () Bool)
(declare-fun A6 () Bool)
(declare-fun A7 () Bool)
(declare-fun A8 () Bool)
(declare-fun A9 () Bool)
(assert (let ((.def_0 (not A6))) (let ((.def_1 (* (- 1) x4))) (let ((.def_2 (* 1 x0))) (let ((.def_3 (+ .def_2 .def_1))) (let ((.def_4 (< .def_3 1))) (let ((.def_5 (not .def_4))) (let ((.def_6 (or .def_5 .def_0))) (let ((.def_7 (not .def_6))) (let ((.def_8 (* 1 x7))) (let ((.def_9 (+ .def_8 .def_2))) (let ((.def_10 (< .def_9 (- 1)))) (let ((.def_11 (or A0 .def_10))) (let ((.def_12 (not .def_11))) (let ((.def_13 (or .def_12 .def_7))) (let ((.def_14 (not A2))) (let ((.def_15 (and .def_14 A5))) (let ((.def_16 (* (- 1) x8))) (let ((.def_17 (< .def_16 1))) (let ((.def_18 (not .def_17))) (let ((.def_19 (and .def_18 A7))) (let ((.def_20 (and .def_19 .def_15))) (let ((.def_21 (not .def_20))) (let ((.def_22 (= .def_21 .def_13))) (let ((.def_23 (or A8 .def_0))) (let ((.def_24 (not .def_23))) (let ((.def_25 (not A1))) (let ((.def_26 (< .def_1 1))) (let ((.def_27 (and .def_26 .def_25))) (let ((.def_28 (not .def_27))) (let ((.def_29 (and .def_28 .def_24))) (let ((.def_30 (not .def_29))) (let ((.def_31 (* (- 1) x5))) (let ((.def_32 (* 1 x8))) (let ((.def_33 (+ .def_32 .def_31))) (let ((.def_34 (< .def_33 1))) (let ((.def_35 (not .def_34))) (let ((.def_36 (not A9))) (let ((.def_37 (or .def_36 .def_35))) (let ((.def_38 (not .def_37))) (let ((.def_39 (* (- 1) x7))) (let ((.def_40 (< .def_39 (- 1)))) (let ((.def_41 (* (- 1) x6))) (let ((.def_42 (+ .def_1 .def_41))) (let ((.def_43 (< .def_42 (- 1)))) (let ((.def_44 (and .def_43 .def_40))) (let ((.def_45 (or .def_44 .def_38))) (let ((.def_46 (not .def_45))) (let ((.def_47 (or .def_46 .def_30))) (let ((.def_48 (or .def_47 .def_22))) (let ((.def_49 (not .def_48))) (let ((.def_50 (not A0))) (let ((.def_51 (and .def_50 .def_25))) (let ((.def_52 (* (- 1) x2))) (let ((.def_53 (+ .def_8 .def_52))) (let ((.def_54 (< .def_53 (- 1)))) (let ((.def_55 (not .def_54))) (let ((.def_56 (or A6 .def_55))) (let ((.def_57 (or .def_56 .def_51))) (let ((.def_58 (not .def_57))) (let ((.def_59 (* (- 1) x3))) (let ((.def_60 (+ .def_59 .def_32))) (let ((.def_61 (< .def_60 (- 1)))) (let ((.def_62 (and .def_61 A3))) (let ((.def_63 (not .def_62))) (let ((.def_64 (= A7 .def_36))) (let ((.def_65 (or .def_64 .def_63))) (let ((.def_66 (not .def_65))) (let ((.def_67 (or .def_66 .def_58))) (let ((.def_68 (not .def_67))) (let ((.def_69 (not A8))) (let ((.def_70 (+ .def_41 .def_8))) (let ((.def_71 (< .def_70 (- 1)))) (let ((.def_72 (and .def_71 .def_69))) (let ((.def_73 (< .def_41 1))) (let ((.def_74 (not .def_73))) (let ((.def_75 (or .def_74 A3))) (let ((.def_76 (not .def_75))) (let ((.def_77 (or .def_76 .def_72))) (let ((.def_78 (not .def_77))) (let ((.def_79 (< .def_32 (- 1)))) (let ((.def_80 (+ .def_52 .def_59))) (let ((.def_81 (< .def_80 (- 1)))) (let ((.def_82 (and .def_81 .def_79))) (let ((.def_83 (* 1 x6))) (let ((.def_84 (* (- 1) x0))) (let ((.def_85 (+ .def_84 .def_83))) (let ((.def_86 (< .def_85 (- 1)))) (let ((.def_87 (not .def_86))) (let ((.def_88 (* 1 x4))) (let ((.def_89 (< .def_88 (- 1)))) (let ((.def_90 (and .def_89 .def_87))) (let ((.def_91 (or .def_90 .def_82))) (let ((.def_92 (not .def_91))) (let ((.def_93 (and .def_92 .def_78))) (let ((.def_94 (not .def_93))) (let ((.def_95 (or .def_94 .def_68))) (let ((.def_96 (and .def_95 .def_49))) (let ((.def_97 (<= x9 1))) (let ((.def_98 (<= 0 x9))) (let ((.def_99 (<= x8 1))) (let ((.def_100 (<= 0 x8))) (let ((.def_101 (<= x7 1))) (let ((.def_102 (<= 0 x7))) (let ((.def_103 (<= x6 1))) (let ((.def_104 (<= 0 x6))) (let ((.def_105 (<= x5 1))) (let ((.def_106 (<= 0 x5))) (let ((.def_107 (<= x4 1))) (let ((.def_108 (<= 0 x4))) (let ((.def_109 (<= x3 1))) (let ((.def_110 (<= 0 x3))) (let ((.def_111 (<= x2 1))) (let ((.def_112 (<= 0 x2))) (let ((.def_113 (<= x1 1))) (let ((.def_114 (<= 0 x1))) (let ((.def_115 (<= x0 1))) (let ((.def_116 (<= 0 x0))) (let ((.def_117 (and .def_116 .def_115 .def_114 .def_113 .def_112 .def_111 .def_110 .def_109 .def_108 .def_107 .def_106 .def_105 .def_104 .def_103 .def_102 .def_101 .def_100 .def_99 .def_98 .def_97 .def_96))) .def_117)))))))))))))))))))))))))))))))))))))))))))))))))))))))))))))))))))))))))))))))))))))))))))))))))))))))))))))))))))))))
(check-sat)
